c   #vars: 127   #clauses: 577   #literals: 1594
c 
p cnf 127 577
-1 -2 0
-3 -4 0
-5 -6 0
-7 -8 0
-9 -10 0
-11 -12 0
-13 -14 0
-15 -16 0
-17 -18 0
-19 -20 0
-21 -22 0
-23 -24 0
-25 -26 0
-27 -28 0
-29 -30 0
7 8 60 61 0
45 46 54 55 0
17 18 44 -49 0
-32 -33 0
-34 -35 0
36 37 85 86 0
95 104 105 -106 0
-36 -37 0
-38 -39 0
-40 -41 0
-42 -43 0
47 -52 58 59 0
-45 -46 0
-29 48 122 123 0
-44 49 106 107 0
56 66 67 -72 0
-50 -51 0
-52 -53 0
-54 -55 0
57 -104 126 127 0
95 106 107 -112 0
-58 -59 0
-60 -61 0
-62 -63 0
-64 -65 0
-66 -67 0
-68 -69 0
-70 -71 0
-72 -73 0
-74 -75 0
-76 -77 0
-78 -79 0
-80 -81 0
-83 -84 0
-85 -86 0
-87 -88 0
-89 -90 0
-91 -92 0
-93 -94 0
1 2 -85 100 0
-96 -97 0
7 8 89 90 0
-98 -99 0
21 22 -80 103 0
-101 -102 0
1 2 -38 108 0
-104 -105 0
-106 -107 0
58 59 -89 109 0
-58 66 67 116 0
-110 -111 0
-112 -113 0
-114 -115 0
-63 70 71 117 0
31 -40 -71 117 0
15 16 96 97 0
-118 -119 0
-120 -121 0
-122 -123 0
1 2 110 111 0
-124 -125 0
70 71 76 77 0
57 -60 104 105 0
36 37 52 53 0
-126 -127 0
-1 -13 0
-2 -14 0
3 4 68 69 0
-1 -89 0
-2 -90 0
-17 -20 44 49 0
21 22 -52 103 0
-2 -100 0
98 99 122 123 0
-13 58 59 109 0
-2 -108 0
68 69 112 113 0
-1 -110 0
-2 -111 0
112 113 126 127 0
-13 48 122 123 0
-4 -47 0
60 61 72 73 0
-3 -64 0
-4 -65 0
5 6 15 16 0
-3 -66 0
-4 -67 0
-3 -68 0
-4 -69 0
91 92 110 111 0
-3 -87 0
-4 -88 0
5 6 101 102 0
-3 -89 0
-4 -90 0
-5 -15 0
-6 -16 0
25 26 32 33 0
-5 -25 0
-6 -26 0
15 16 19 20 0
-5 -34 0
-6 -35 0
19 20 64 65 0
-5 -42 0
-6 -43 0
11 12 31 -117 0
-6 -82 0
106 107 124 125 0
-5 -101 0
-6 -102 0
9 10 34 35 0
-7 -11 0
-8 -12 0
9 10 110 111 0
-7 -23 0
-8 -24 0
9 10 21 22 0
-7 -38 0
-8 -39 0
101 102 104 105 0
-7 -60 0
-8 -61 0
3 4 66 67 0
-7 -62 0
-8 -63 0
15 16 87 88 0
-7 -80 0
-8 -81 0
40 41 98 99 0
-7 -89 0
-8 -90 0
-9 -11 0
-10 -12 0
27 28 91 92 0
-9 -21 0
-10 -22 0
40 41 80 81 0
-9 -34 0
-10 -35 0
9 10 11 12 0
-9 -74 0
-10 -75 0
91 92 112 113 0
-9 -110 0
-10 -111 0
1 2 13 14 0
-9 -124 0
-10 -125 0
11 12 42 43 0
42 43 93 94 0
76 77 87 88 0
17 18 -38 44 0
-12 -31 0
58 59 118 119 0
-11 -42 0
-12 -43 0
29 30 120 121 0
-11 -78 0
-12 -79 0
29 30 80 81 0
-11 -106 0
-12 -107 0
-31 70 71 117 0
-12 -116 0
47 52 53 -58 0
-13 -27 0
-14 -28 0
-20 49 106 107 0
-14 -48 0
76 77 93 94 0
-11 66 67 116 0
-14 -109 0
54 55 85 86 0
-15 -19 0
-16 -20 0
3 4 87 88 0
54 55 83 84 0
-15 -87 0
-16 -88 0
-15 -96 0
-16 -97 0
50 51 78 79 0
-17 -29 0
-18 -30 0
23 24 62 63 0
-3 47 58 59 0
-18 -44 0
13 14 -89 109 0
-18 -108 0
27 28 126 127 0
-17 -110 0
-18 -111 0
21 22 124 125 0
-19 -42 0
-20 -43 0
38 39 118 119 0
-19 -49 0
56 66 67 -70 0
32 33 72 73 0
-19 -64 0
-20 -65 0
21 22 25 26 0
-19 -70 0
-20 -71 0
-17 38 39 108 0
-19 -98 0
-20 -99 0
-21 -25 0
-22 -26 0
27 28 83 84 0
-21 -36 0
-22 -37 0
13 14 27 28 0
-21 -62 0
-22 -63 0
11 12 78 79 0
1 2 -17 108 0
-22 -103 0
-58 89 90 109 0
-21 -124 0
-22 -125 0
78 79 120 121 0
-23 -62 0
-24 -63 0
64 65 74 75 0
-23 -106 0
-24 -107 0
-23 -120 0
-24 -121 0
-1 38 39 108 0
-25 -32 0
-26 -33 0
31 40 41 -117 0
-25 -50 0
-26 -51 0
5 6 34 35 0
-27 -36 0
-28 -37 0
34 35 112 113 0
-27 -70 0
-28 -71 0
50 51 85 86 0
-27 -83 0
-28 -84 0
38 39 45 46 0
-27 -91 0
-28 -92 0
34 35 87 88 0
-27 -126 0
-28 -127 0
52 53 98 99 0
-29 -38 0
-30 -39 0
66 67 126 127 0
19 20 49 -107 0
-30 -48 0
-17 38 39 44 0
-29 -80 0
-30 -81 0
72 73 83 84 0
11 12 31 -40 0
-30 -82 0
93 94 118 119 0
-29 -114 0
-30 -115 0
87 88 122 123 0
-29 -120 0
-30 -121 0
78 79 126 127 0
56 -66 70 71 0
-31 -41 0
-11 31 -71 117 0
56 70 71 -72 0
-32 -68 0
-33 -69 0
68 69 89 90 0
-32 -72 0
-33 -73 0
54 55 98 99 0
-32 -104 0
-33 -105 0
32 33 68 69 0
-34 -54 0
-35 -55 0
17 18 110 111 0
-34 -87 0
-35 -88 0
23 24 120 121 0
-34 -112 0
-35 -113 0
40 41 118 119 0
-34 -126 0
-35 -127 0
42 43 104 105 0
-29 82 122 123 0
78 79 104 105 0
-5 82 122 123 0
31 -40 -63 117 0
-36 -42 0
-37 -43 0
-36 -50 0
-37 -51 0
-36 -52 0
-37 -53 0
21 22 62 63 0
-36 -58 0
-37 -59 0
3 4 89 90 0
-36 -76 0
-37 -77 0
83 84 91 92 0
-36 -85 0
-37 -86 0
27 28 70 71 0
3 4 47 -58 0
-39 -44 0
25 26 50 51 0
-38 -45 0
-39 -46 0
52 53 101 102 0
13 14 -58 109 0
-39 -108 0
-38 -114 0
-39 -115 0
29 30 82 -122 0
-38 -118 0
-39 -119 0
96 97 124 125 0
-38 -122 0
-39 -123 0
70 71 -85 100 0
-40 -80 0
-41 -81 0
19 20 42 43 0
-40 -98 0
-41 -99 0
45 46 76 77 0
-40 -101 0
-41 -102 0
5 6 42 43 0
-40 -104 0
-41 -105 0
-13 89 90 109 0
-40 -118 0
-41 -119 0
60 61 96 97 0
-42 -93 0
-43 -94 0
11 12 -66 116 0
-42 -104 0
-43 -105 0
3 4 47 -52 0
56 -70 72 73 0
-1 70 71 100 0
-45 -54 0
-46 -55 0
40 41 104 105 0
-45 -76 0
-46 -77 0
29 30 38 39 0
-45 -104 0
-46 -105 0
52 53 62 63 0
13 14 48 -122 0
-47 -53 0
36 37 42 43 0
13 14 -29 48 0
-47 -59 0
36 37 50 51 0
19 20 -44 49 0
-48 -123 0
74 75 89 90 0
-49 -106 0
56 -66 72 73 0
74 75 114 115 0
-50 -78 0
-51 -79 0
5 6 -29 82 0
-50 -85 0
-51 -86 0
66 67 68 69 0
-52 -62 0
-53 -63 0
7 8 62 63 0
-52 -98 0
-53 -99 0
78 79 96 97 0
-52 -101 0
-53 -102 0
9 10 124 125 0
17 18 -38 108 0
-53 -103 0
7 8 11 12 0
29 30 114 115 0
-54 -83 0
-55 -84 0
80 81 106 107 0
-54 -85 0
-55 -86 0
-3 47 52 53 0
-54 -98 0
-55 -99 0
9 10 74 75 0
36 37 58 59 0
57 -60 126 127 0
-56 -67 0
57 60 61 -126 0
-56 -71 0
5 6 25 26 0
57 60 61 -104 0
-56 -73 0
95 -104 106 107 0
-57 -61 0
34 35 126 127 0
95 -106 112 113 0
-57 -105 0
95 -104 112 113 0
-57 -127 0
62 63 110 111 0
-58 -74 0
-59 -75 0
-21 52 53 103 0
58 59 -66 116 0
-59 -109 0
74 75 120 121 0
62 63 -71 117 0
-59 -116 0
95 104 105 -112 0
-58 -118 0
-59 -119 0
11 12 106 107 0
-60 -72 0
-61 -73 0
38 39 122 123 0
-60 -96 0
-61 -97 0
-62 -110 0
-63 -111 0
-20 -38 44 49 0
-62 -117 0
-64 -74 0
-65 -75 0
7 8 38 39 0
-64 -78 0
-65 -79 0
124 125 126 127 0
-66 -68 0
-67 -69 0
38 39 114 115 0
-66 -114 0
-67 -115 0
66 67 114 115 0
-31 62 63 117 0
-67 -116 0
76 77 120 121 0
-66 -126 0
-67 -127 0
17 18 29 30 0
-68 -89 0
-69 -90 0
-11 31 40 41 0
-68 -112 0
-69 -113 0
1 2 89 90 0
-70 -76 0
-71 -77 0
19 20 70 71 0
-52 80 81 103 0
-71 -100 0
34 35 54 55 0
-70 -117 0
5 6 82 -122 0
-72 -83 0
-73 -84 0
19 20 98 99 0
-74 -89 0
-75 -90 0
74 75 106 107 0
-74 -106 0
-75 -107 0
64 65 78 79 0
-74 -114 0
-75 -115 0
-74 -120 0
-75 -121 0
57 104 105 -126 0
-76 -87 0
-77 -88 0
93 94 98 99 0
-76 -93 0
-77 -94 0
-17 44 49 -107 0
-76 -120 0
-77 -121 0
-78 -96 0
-79 -97 0
-78 -104 0
-79 -105 0
7 8 23 24 0
-78 -120 0
-79 -121 0
36 37 76 77 0
-78 -126 0
-79 -127 0
-38 44 49 -107 0
-1 17 18 108 0
-81 -103 0
38 39 44 -49 0
-80 -106 0
-81 -107 0
29 30 48 -122 0
-82 -123 0
23 24 106 107 0
-83 -91 0
-84 -92 0
21 22 36 37 0
-21 80 81 103 0
-86 -100 0
-11 31 -63 117 0
-87 -122 0
-88 -123 0
-11 58 59 116 0
-90 -109 0
7 8 80 81 0
-91 -110 0
-92 -111 0
11 12 -58 116 0
-91 -112 0
-92 -113 0
45 46 104 105 0
-93 -98 0
-94 -99 0
40 41 101 102 0
-93 -118 0
-94 -119 0
1 2 -70 100 0
-95 -105 0
58 59 74 75 0
-70 85 86 100 0
-95 -107 0
3 4 64 65 0
-1 85 86 100 0
-95 -113 0
-96 -124 0
-97 -125 0
27 28 36 37 0
-98 -122 0
-99 -123 0
-13 29 30 48 0
-101 -104 0
-102 -105 0
52 53 -80 103 0
-106 -124 0
-107 -125 0
32 33 104 105 0
-112 -126 0
-113 -127 0
-5 29 30 82 0
-124 -126 0
-125 -127 0
